MisInstancias/Instancia2_CostosAltos.txt
50
10
5,5,5,5,5,5,5,5,5,5
0.0,0.1,0.2,0.3,0.4,0.5,0.6,0.7,0.8,0.9
1.0,1.0,1.0,1.0,1.0,1.0,1.0,1.0,1.0,1.0
0,100.0,100.0,100.0,100.0,100.0,100.0,100.0,100.0,100.0
100.0,0,100.0,100.0,100.0,100.0,100.0,100.0,100.0,100.0
100.0,100.0,0,100.0,100.0,100.0,100.0,100.0,100.0,100.0
100.0,100.0,100.0,0,100.0,100.0,100.0,100.0,100.0,100.0
100.0,100.0,100.0,100.0,0,100.0,100.0,100.0,100.0,100.0
100.0,100.0,100.0,100.0,100.0,0,100.0,100.0,100.0,100.0
100.0,100.0,100.0,100.0,100.0,100.0,0,100.0,100.0,100.0
100.0,100.0,100.0,100.0,100.0,100.0,100.0,0,100.0,100.0
100.0,100.0,100.0,100.0,100.0,100.0,100.0,100.0,0,100.0
100.0,100.0,100.0,100.0,100.0,100.0,100.0,100.0,100.0,0
150.0
5
